\ This file has been generated by DOcplex
\ ENCODING=ISO-8859-1
\Problem name: random_problem.lp

Minimize
 obj: 2 x0 - 9 x1 - 5 x2 + 4 x3 + 4 x4 - 7 x5 + 5 x6 - x7 - 5 x8 - x9 - 9 x10
      + x11 + 7 x12 + x13 - 5 x15 - 6 x16 - 4 x17 + 9 x18 - 2 x19 - 9 x20
      + 6 x21 - x22 + 7 x23 + 2 x24 - 6 x25 - 3 x26 + 6 x27 - x28 - 7 x29
      + 6 x30 - 4 x31 + 7 x32 + 5 x33 + 2 x34 + 4 x35 - 10 x36 - 5 x37 + 9 x38
      + 10 x39 - 3 x40 + 5 x41 + 10 x42 + x43 - 3 x44 - 7 x45 - 6 x46 - 5 x47
      - x48 - 3 x49 + 9 x50 + 6 x51 + 6 x52 - x53 + 4 x54 - 6 x55 - 2 x56
      + 8 x57 - 10 x58 - 3 x59 + 10 x60 + 10 x61 + 7 x62 - 6 x63 - 2 x64 + 4 x65
      - 10 x66 + 10 x67 + 7 x68 + [ 12 x0*x13 + 20 x0*x15 - 16 x0*x22
      - 14 x0*x26 - 2 x0*x37 + 18 x0*x38 - 6 x0*x52 - 18 x0*x55 + 6 x0*x56
      + 8 x0*x67 + 14 x1*x8 + 14 x1*x11 + 4 x1*x14 - 12 x1*x20 - 16 x1*x22
      - 14 x1*x28 + 14 x1*x38 - 18 x1*x44 + 18 x1*x59 + 18 x1*x61 + 4 x2*x16
      + 18 x2*x22 + 14 x2*x34 - 16 x2*x35 - 8 x2*x37 - 10 x2*x40 - 14 x2*x44
      - 8 x2*x47 + 6 x2*x48 + 14 x2*x53 + 12 x3*x9 - 8 x3*x16 - 20 x3*x17
      + 18 x3*x18 - 2 x3*x22 - 8 x3*x34 - 2 x3*x39 - 12 x3*x40 + 18 x3*x64
      - 10 x3*x67 - 2 x4*x16 + 4 x4*x27 + 18 x4*x29 - 4 x4*x36 - 12 x4*x44
      + 4 x4*x45 + 18 x4*x55 - 14 x4*x63 - 8 x4*x65 - 16 x4*x69 + 2 x5*x7
      - 4 x5*x17 - 20 x5*x18 - 4 x5*x24 + 10 x5*x28 + 18 x5*x40 - 10 x5*x51
      + 6 x5*x52 - 20 x5*x58 + 6 x5*x59 + 12 x6*x7 + 8 x6*x21 + 10 x6*x25
      + 20 x6*x35 - 10 x6*x46 + 10 x6*x47 + 2 x6*x54 + 18 x6*x55 + 6 x6*x57
      + 12 x6*x64 + 20 x7*x18 - 18 x7*x23 - 18 x7*x27 - 20 x7*x45 + 10 x7*x54
      - 4 x7*x56 + 20 x7*x57 + 2 x7*x63 + 8 x8*x10 + 6 x8*x12 + 6 x8*x18
      + 10 x8*x29 + 6 x8*x30 + 4 x8*x31 - 18 x8*x39 + 16 x8*x46 + 8 x8*x60
      - 14 x9*x21 + 12 x9*x22 + 18 x9*x24 - 12 x9*x26 - 14 x9*x30 - 14 x9*x35
      + 14 x9*x42 - 20 x9*x55 + 10 x9*x63 - 18 x10*x12 + 12 x10*x15 + 6 x10*x18
      - 16 x10*x50 + 16 x10*x58 + 12 x10*x62 + 12 x10*x64 - 20 x10*x66
      - 16 x10*x67 + 4 x11*x13 - 2 x11*x25 - 10 x11*x29 + 8 x11*x36 - 8 x11*x41
      + 12 x11*x46 - 20 x11*x48 + 16 x11*x61 - 18 x11*x67 - 2 x12*x24
      + 12 x12*x31 + 10 x12*x51 - 14 x12*x52 + 12 x12*x59 - 8 x12*x62
      + 20 x12*x65 - 20 x12*x68 + 16 x13*x27 + 20 x13*x32 - 20 x13*x42
      - 12 x13*x45 + 20 x13*x49 + 8 x13*x51 + 12 x13*x57 + 10 x13*x61
      + 10 x14*x17 + 8 x14*x20 - 18 x14*x34 + 10 x14*x38 + 20 x14*x42
      - 6 x14*x47 - 12 x14*x50 - 6 x14*x61 - 8 x14*x65 - 20 x15*x32 + 18 x15*x34
      + 20 x15*x40 + 12 x15*x54 - 18 x15*x60 + 8 x15*x61 - 10 x15*x62
      - 10 x15*x69 - 2 x16*x30 + 14 x16*x32 - 14 x16*x35 + 12 x16*x39
      + 4 x16*x51 - 2 x16*x62 + 14 x16*x68 + 6 x17*x25 + 12 x17*x37 + 20 x17*x40
      + 8 x17*x58 + 12 x17*x59 - 12 x17*x60 + 8 x17*x66 - 2 x18*x25 + 10 x18*x30
      - 2 x18*x31 + 4 x18*x47 + 14 x18*x50 + 14 x19*x28 - 20 x19*x31
      + 14 x19*x33 - 8 x19*x39 - 20 x19*x42 + 4 x19*x43 + 14 x19*x49 + 2 x19*x55
      - 8 x19*x63 - 6 x19*x66 - 18 x20*x31 + 14 x20*x36 - 8 x20*x49 - 16 x20*x53
      - 4 x20*x57 + 4 x20*x64 - 2 x20*x65 - 2 x20*x66 - 16 x21*x23 + 16 x21*x25
      + 8 x21*x43 - 18 x21*x44 - 2 x21*x48 + 14 x21*x57 + 2 x21*x63 - 2 x21*x67
      - 6 x22*x35 + 14 x22*x36 - 20 x22*x39 - 4 x22*x42 + 10 x22*x64
      - 18 x23*x24 - 18 x23*x25 + 4 x23*x36 - 2 x23*x48 - 20 x23*x53
      + 16 x23*x54 + 8 x23*x64 + 6 x23*x68 + 2 x24*x30 - 4 x24*x32 - 16 x24*x35
      - 18 x24*x41 + 16 x24*x46 - 14 x24*x48 - 20 x25*x29 + 6 x25*x38
      - 6 x25*x57 - 18 x25*x68 - 6 x26*x29 - 4 x26*x31 + 8 x26*x33 + 12 x26*x40
      - 18 x26*x50 + 2 x26*x54 + 2 x26*x63 - 16 x26*x65 - 16 x27*x39
      - 18 x27*x49 + 10 x27*x54 - 14 x27*x62 + 14 x27*x63 + 18 x27*x67
      + 14 x27*x69 - 8 x28*x35 - 12 x28*x40 - 10 x28*x48 + 14 x28*x55
      - 12 x28*x59 + 18 x28*x65 + 8 x28*x69 - 14 x29*x44 - 18 x29*x51
      - 2 x29*x55 - 16 x29*x63 + 10 x29*x67 + 8 x30*x44 - 14 x30*x45
      + 16 x30*x47 + 12 x30*x51 + 10 x30*x52 - 18 x31*x38 + 10 x31*x45
      - 4 x31*x57 + 2 x31*x68 - 10 x32*x33 + 18 x32*x43 - 8 x32*x47 - 18 x32*x56
      + 8 x32*x59 - 18 x32*x66 + 6 x33*x34 + 2 x33*x48 + 4 x33*x53 + 10 x33*x57
      + 12 x33*x59 - 8 x33*x68 - 18 x33*x69 + 16 x34*x39 - 12 x34*x48
      - 14 x34*x49 + 2 x34*x58 + 10 x34*x60 + 16 x35*x41 + 10 x35*x51
      - 12 x35*x55 + 20 x36*x38 - 14 x36*x43 + 20 x36*x45 + 14 x36*x51
      - 20 x36*x61 + 2 x37*x45 + 16 x37*x52 + 20 x37*x57 + 6 x37*x60
      - 18 x37*x61 + 2 x37*x65 + 16 x37*x68 - 4 x38*x41 - 8 x38*x42 + 20 x38*x46
      + 8 x38*x53 - 18 x39*x41 + 16 x39*x47 + 16 x39*x69 + 6 x40*x49 + 6 x40*x52
      + 10 x40*x63 - 14 x41*x48 + 20 x41*x52 - 10 x41*x54 + 20 x41*x56
      + 14 x41*x59 + 12 x42*x46 - 18 x42*x49 - 12 x42*x58 + 8 x42*x66
      + 16 x43*x44 - 8 x43*x55 - 18 x43*x56 + 2 x43*x64 - 10 x43*x67 + 2 x43*x68
      - 10 x44*x53 - 14 x44*x59 + 12 x44*x69 - 20 x45*x53 - 14 x45*x56
      - 4 x45*x69 + 20 x46*x49 + 18 x46*x51 - 16 x46*x64 + 16 x46*x68
      - 18 x47*x54 + 10 x47*x60 + 2 x47*x66 + 16 x48*x62 - 20 x49*x60
      - 2 x49*x61 + 6 x50*x54 - 2 x50*x58 + 6 x50*x60 + 8 x50*x61 - 14 x50*x62
      + 14 x50*x67 - 18 x51*x65 - 16 x52*x56 + 16 x52*x58 + 2 x52*x66
      + 12 x53*x54 + 14 x53*x59 + 18 x53*x63 - 2 x55*x58 + 20 x56*x64
      + 16 x56*x66 + 16 x56*x69 - 16 x57*x64 - 6 x58*x62 + 4 x58*x65
      - 18 x60*x66 + 14 x60*x69 + 6 x61*x68 - 12 x62*x65 - 6 x62*x67 ]/2
Subject To
 c0: x0 + x1 - 2 x9 + x16 + x20 + x24 + x48 + 2 x51 + 2 x61 + 2 x62 = -2
 c1: 2 x7 + x24 - x29 - x34 + x39 - x41 - 2 x42 - 2 x47 + x56 - 2 x62 = 0
 c2: - x0 - 2 x5 + x7 - x22 + 2 x28 + x31 - 2 x36 + x38 + 2 x56 + 2 x58 = 1
 c3: - 2 x1 - 2 x2 + x3 - 2 x5 + x10 - 2 x12 - x17 - 2 x30 - 2 x32 + 2 x38 = -2
 c4: - 2 x15 - x17 - x30 + x31 + 2 x34 - x36 + 2 x48 - x53 + x63 - x69 = -1
 c5: x11 - 2 x15 - x28 + 2 x32 + 2 x36 + 2 x49 - 2 x53 - x62 + 2 x64 - 2 x65 = 
     1
 c6: 2 x0 + 2 x12 - 2 x21 + x29 - x41 + 2 x44 + 2 x45 - x54 - x55 - 2 x64 = 1
 c7: - x1 - 2 x2 + x3 + x4 + x37 - x42 + x49 - 2 x54 - x57 + x66 = 1
 c8: x17 + 2 x20 + x23 - x28 - 2 x29 - 2 x40 - x47 - x59 + 2 x65 + x67 = 1
 c9: - 2 x4 - 2 x11 - x30 - 2 x34 - 2 x40 + x47 - x51 + x61 + 2 x62 + 2 x65 = 0
 c10: - 2 x18 + x21 + 2 x25 + 2 x31 + 2 x34 - x35 + 2 x54 + x55 - 2 x61 + 2 x63
       = 0
 c11: x3 - 2 x4 + 2 x7 + x13 + 2 x14 - 2 x23 - 2 x26 - 2 x32 + 2 x39 - x57 = 1
 c12: 2 x8 - x11 + 2 x22 - 2 x25 + 2 x27 - x36 + 2 x53 - 2 x62 - x63 - 2 x68 = 
      -1
 c13: - x7 + x10 - x11 + x12 + 2 x22 + x43 + x51 + x57 - 2 x59 + 2 x69 = -2

Bounds
 0 <= x0 <= 1
 0 <= x1 <= 1
 0 <= x2 <= 1
 0 <= x3 <= 1
 0 <= x4 <= 1
 0 <= x5 <= 1
 0 <= x6 <= 1
 0 <= x7 <= 1
 0 <= x8 <= 1
 0 <= x9 <= 1
 0 <= x10 <= 1
 0 <= x11 <= 1
 0 <= x12 <= 1
 0 <= x13 <= 1
 0 <= x14 <= 1
 0 <= x15 <= 1
 0 <= x16 <= 1
 0 <= x17 <= 1
 0 <= x18 <= 1
 0 <= x19 <= 1
 0 <= x20 <= 1
 0 <= x21 <= 1
 0 <= x22 <= 1
 0 <= x23 <= 1
 0 <= x24 <= 1
 0 <= x25 <= 1
 0 <= x26 <= 1
 0 <= x27 <= 1
 0 <= x28 <= 1
 0 <= x29 <= 1
 0 <= x30 <= 1
 0 <= x31 <= 1
 0 <= x32 <= 1
 0 <= x33 <= 1
 0 <= x34 <= 1
 0 <= x35 <= 1
 0 <= x36 <= 1
 0 <= x37 <= 1
 0 <= x38 <= 1
 0 <= x39 <= 1
 0 <= x40 <= 1
 0 <= x41 <= 1
 0 <= x42 <= 1
 0 <= x43 <= 1
 0 <= x44 <= 1
 0 <= x45 <= 1
 0 <= x46 <= 1
 0 <= x47 <= 1
 0 <= x48 <= 1
 0 <= x49 <= 1
 0 <= x50 <= 1
 0 <= x51 <= 1
 0 <= x52 <= 1
 0 <= x53 <= 1
 0 <= x54 <= 1
 0 <= x55 <= 1
 0 <= x56 <= 1
 0 <= x57 <= 1
 0 <= x58 <= 1
 0 <= x59 <= 1
 0 <= x60 <= 1
 0 <= x61 <= 1
 0 <= x62 <= 1
 0 <= x63 <= 1
 0 <= x64 <= 1
 0 <= x65 <= 1
 0 <= x66 <= 1
 0 <= x67 <= 1
 0 <= x68 <= 1
 0 <= x69 <= 1

Binaries
 x0 x1 x2 x3 x4 x5 x6 x7 x8 x9 x10 x11 x12 x13 x14 x15 x16 x17 x18 x19 x20 x21
 x22 x23 x24 x25 x26 x27 x28 x29 x30 x31 x32 x33 x34 x35 x36 x37 x38 x39 x40 x41
 x42 x43 x44 x45 x46 x47 x48 x49 x50 x51 x52 x53 x54 x55 x56 x57 x58 x59 x60 x61
 x62 x63 x64 x65 x66 x67 x68 x69
End
